c "12764.clq"
p edge 80 304
e 1 5
e 1 6
e 1 8
e 1 10
e 1 14
e 1 16
e 1 18
e 1 20
e 1 21
e 1 25
e 1 26
e 1 32
e 1 39
e 1 55
e 1 60
e 1 70
e 1 77
e 2 5
e 2 9
e 2 19
e 2 39
e 3 5
e 3 6
e 3 7
e 3 22
e 3 44
e 4 5
e 4 6
e 4 7
e 4 8
e 4 9
e 4 11
e 4 12
e 4 13
e 4 18
e 4 38
e 4 47
e 4 50
e 4 53
e 4 62
e 4 63
e 4 64
e 4 74
e 4 79
e 5 6
e 5 7
e 5 8
e 5 9
e 5 11
e 5 12
e 5 13
e 5 15
e 5 17
e 5 19
e 5 20
e 5 21
e 5 26
e 5 30
e 5 36
e 5 37
e 5 40
e 5 49
e 5 50
e 5 51
e 5 54
e 5 58
e 5 62
e 5 66
e 5 67
e 5 68
e 5 69
e 5 71
e 6 7
e 6 8
e 6 10
e 6 11
e 6 14
e 6 15
e 6 16
e 6 17
e 6 26
e 6 28
e 6 31
e 6 32
e 6 33
e 6 35
e 6 46
e 6 51
e 6 57
e 6 60
e 6 64
e 6 70
e 6 73
e 7 10
e 7 12
e 7 32
e 7 33
e 7 44
e 7 57
e 7 66
e 7 67
e 8 9
e 8 10
e 8 11
e 8 19
e 8 21
e 8 23
e 8 24
e 8 25
e 8 27
e 8 31
e 8 32
e 8 36
e 8 42
e 8 44
e 8 45
e 8 52
e 8 64
e 8 65
e 8 67
e 8 71
e 8 72
e 8 77
e 8 80
e 9 15
e 9 16
e 9 20
e 9 22
e 9 23
e 9 24
e 9 26
e 9 30
e 9 34
e 9 47
e 9 48
e 9 70
e 10 12
e 10 13
e 10 15
e 10 17
e 10 20
e 10 25
e 10 29
e 10 30
e 10 31
e 10 35
e 10 38
e 10 39
e 10 44
e 10 50
e 10 55
e 10 66
e 10 72
e 10 74
e 10 76
e 10 80
e 11 14
e 11 23
e 11 24
e 11 31
e 11 34
e 11 37
e 11 39
e 11 41
e 11 42
e 11 47
e 11 52
e 11 58
e 11 59
e 12 13
e 12 16
e 12 22
e 12 36
e 12 43
e 12 51
e 12 54
e 12 75
e 13 14
e 13 18
e 13 27
e 13 34
e 13 37
e 13 38
e 13 41
e 13 47
e 13 49
e 13 61
e 13 63
e 14 17
e 14 19
e 14 27
e 14 28
e 14 34
e 14 40
e 14 48
e 14 56
e 14 59
e 14 63
e 14 76
e 15 24
e 15 28
e 15 29
e 15 46
e 15 49
e 15 58
e 16 18
e 16 21
e 16 23
e 16 56
e 16 59
e 16 60
e 17 45
e 17 48
e 18 75
e 19 22
e 19 28
e 19 30
e 19 33
e 19 52
e 19 53
e 19 58
e 19 68
e 19 78
e 20 27
e 20 41
e 20 50
e 20 77
e 21 25
e 21 35
e 21 48
e 21 49
e 21 54
e 21 64
e 21 74
e 21 75
e 22 29
e 22 35
e 22 41
e 23 29
e 23 46
e 23 51
e 24 45
e 24 74
e 25 57
e 26 52
e 26 56
e 26 65
e 26 68
e 26 78
e 27 38
e 27 53
e 27 54
e 27 55
e 27 73
e 28 40
e 28 43
e 28 46
e 28 57
e 28 69
e 28 80
e 29 37
e 29 62
e 29 69
e 29 79
e 30 36
e 30 53
e 30 61
e 31 33
e 31 43
e 31 60
e 33 72
e 33 80
e 34 73
e 36 40
e 37 79
e 39 42
e 39 67
e 40 42
e 41 43
e 43 45
e 45 61
e 45 68
e 46 62
e 47 66
e 47 78
e 48 56
e 48 59
e 48 65
e 48 70
e 48 75
e 49 73
e 50 55
e 52 76
e 53 63
e 55 71
e 57 65
e 57 71
e 57 78
e 58 69
e 59 61
e 65 77
e 67 72
e 73 76
e 75 79
